33D32945 STP File, STP Format Version 1.0

SECTION Comment
Name "i640-233-PCST"
Creator "Indaco Biazzo" 
Remark "derived from Incidence graph by Cees Duin"
END

SECTION Graph
Nodes 640
Edges 1280
E 1 50 304.000000
E 1 63 201.000000
E 1 74 197.000000
E 1 100 188.000000
E 1 147 195.000000
E 1 165 193.000000
E 1 173 193.000000
E 1 299 201.000000
E 1 397 195.000000
E 1 437 198.000000
E 1 460 202.000000
E 1 511 200.000000
E 1 579 199.000000
E 1 627 204.000000
E 2 19 301.000000
E 2 41 301.000000
E 2 63 198.000000
E 3 318 206.000000
E 3 440 203.000000
E 4 221 205.000000
E 4 286 204.000000
E 4 362 197.000000
E 4 366 198.000000
E 5 63 201.000000
E 5 65 210.000000
E 5 191 203.000000
E 5 199 195.000000
E 5 253 194.000000
E 5 521 206.000000
E 6 348 202.000000
E 6 370 198.000000
E 6 631 197.000000
E 7 20 310.000000
E 7 230 199.000000
E 7 243 201.000000
E 7 289 201.000000
E 7 405 193.000000
E 7 486 204.000000
E 8 17 301.000000
E 8 105 199.000000
E 8 140 202.000000
E 8 342 205.000000
E 9 98 198.000000
E 9 114 199.000000
E 9 193 202.000000
E 9 223 192.000000
E 9 624 200.000000
E 10 123 200.000000
E 10 428 202.000000
E 11 267 205.000000
E 11 503 200.000000
E 11 546 199.000000
E 11 619 191.000000
E 12 20 298.000000
E 12 356 197.000000
E 13 35 288.000000
E 13 133 200.000000
E 13 190 200.000000
E 13 492 198.000000
E 13 606 209.000000
E 14 60 206.000000
E 14 132 201.000000
E 14 247 198.000000
E 14 274 200.000000
E 14 358 196.000000
E 14 600 191.000000
E 15 326 202.000000
E 15 393 207.000000
E 15 461 194.000000
E 15 584 191.000000
E 16 206 192.000000
E 16 227 200.000000
E 16 246 201.000000
E 16 380 192.000000
E 16 390 207.000000
E 17 319 200.000000
E 17 533 197.000000
E 17 551 202.000000
E 18 37 299.000000
E 18 44 298.000000
E 18 50 298.000000
E 18 68 192.000000
E 18 94 202.000000
E 18 259 201.000000
E 18 275 205.000000
E 18 352 203.000000
E 18 430 198.000000
E 18 449 199.000000
E 19 89 196.000000
E 19 280 196.000000
E 19 631 201.000000
E 20 358 203.000000
E 20 429 187.000000
E 20 458 201.000000
E 20 473 209.000000
E 20 592 199.000000
E 21 103 205.000000
E 21 237 202.000000
E 21 280 196.000000
E 21 423 203.000000
E 21 457 196.000000
E 21 469 197.000000
E 21 487 205.000000
E 22 218 194.000000
E 22 268 197.000000
E 22 345 200.000000
E 22 384 197.000000
E 23 94 196.000000
E 23 384 194.000000
E 23 611 195.000000
E 24 436 204.000000
E 24 449 205.000000
E 24 489 203.000000
E 25 593 207.000000
E 25 639 209.000000
E 26 79 192.000000
E 26 634 195.000000
E 27 161 201.000000
E 27 269 208.000000
E 27 354 199.000000
E 28 133 196.000000
E 28 203 194.000000
E 28 368 202.000000
E 28 394 209.000000
E 28 467 207.000000
E 28 605 206.000000
E 29 207 211.000000
E 29 300 201.000000
E 29 302 190.000000
E 29 392 204.000000
E 30 92 197.000000
E 30 427 195.000000
E 30 611 200.000000
E 30 613 198.000000
E 31 571 194.000000
E 32 411 198.000000
E 32 501 201.000000
E 32 596 199.000000
E 33 249 203.000000
E 33 353 200.000000
E 33 477 199.000000
E 33 523 194.000000
E 34 284 199.000000
E 34 543 203.000000
E 35 384 193.000000
E 36 113 202.000000
E 36 284 197.000000
E 36 345 202.000000
E 36 400 202.000000
E 36 445 212.000000
E 36 571 208.000000
E 36 615 208.000000
E 37 92 208.000000
E 37 115 195.000000
E 37 351 203.000000
E 37 441 206.000000
E 37 535 202.000000
E 38 132 198.000000
E 38 270 196.000000
E 38 300 198.000000
E 38 440 206.000000
E 39 40 295.000000
E 39 76 201.000000
E 39 147 195.000000
E 39 273 209.000000
E 39 293 195.000000
E 39 331 201.000000
E 39 418 207.000000
E 39 554 193.000000
E 39 558 199.000000
E 39 611 206.000000
E 40 165 203.000000
E 40 239 198.000000
E 40 339 205.000000
E 40 382 201.000000
E 40 401 197.000000
E 40 457 195.000000
E 40 459 197.000000
E 40 606 202.000000
E 41 113 206.000000
E 41 127 202.000000
E 41 514 202.000000
E 42 530 186.000000
E 43 72 203.000000
E 43 90 195.000000
E 44 223 201.000000
E 44 341 201.000000
E 45 309 201.000000
E 45 375 195.000000
E 45 616 200.000000
E 46 140 199.000000
E 46 358 211.000000
E 46 607 193.000000
E 47 63 207.000000
E 47 393 203.000000
E 47 465 192.000000
E 48 466 207.000000
E 48 571 196.000000
E 48 582 201.000000
E 49 114 197.000000
E 49 561 206.000000
E 50 196 201.000000
E 50 233 200.000000
E 50 318 200.000000
E 50 365 210.000000
E 50 419 209.000000
E 50 532 199.000000
E 50 586 201.000000
E 51 63 101.000000
E 51 534 99.000000
E 52 425 108.000000
E 53 116 101.000000
E 53 130 100.000000
E 53 328 100.000000
E 53 372 100.000000
E 53 451 103.000000
E 54 75 98.000000
E 54 198 97.000000
E 54 225 101.000000
E 54 471 105.000000
E 54 495 99.000000
E 54 566 92.000000
E 55 201 98.000000
E 55 409 107.000000
E 55 624 92.000000
E 56 472 102.000000
E 56 560 99.000000
E 56 599 95.000000
E 57 172 105.000000
E 57 483 102.000000
E 57 579 97.000000
E 58 103 92.000000
E 58 132 102.000000
E 58 257 105.000000
E 59 415 103.000000
E 59 425 101.000000
E 59 441 109.000000
E 59 515 100.000000
E 60 333 110.000000
E 60 405 107.000000
E 60 496 105.000000
E 61 141 103.000000
E 61 396 105.000000
E 61 449 91.000000
E 62 110 100.000000
E 62 146 98.000000
E 62 199 111.000000
E 62 286 102.000000
E 62 306 101.000000
E 62 598 102.000000
E 63 170 102.000000
E 63 260 98.000000
E 63 306 106.000000
E 63 636 100.000000
E 64 186 100.000000
E 64 266 99.000000
E 64 303 102.000000
E 64 333 98.000000
E 64 415 100.000000
E 65 186 104.000000
E 65 285 99.000000
E 66 72 93.000000
E 67 193 103.000000
E 67 208 97.000000
E 67 363 110.000000
E 67 431 103.000000
E 68 166 99.000000
E 68 313 103.000000
E 68 557 108.000000
E 69 246 103.000000
E 69 267 93.000000
E 69 504 107.000000
E 69 620 112.000000
E 70 147 99.000000
E 70 258 97.000000
E 70 599 98.000000
E 71 143 101.000000
E 71 283 85.000000
E 72 211 98.000000
E 72 388 99.000000
E 72 547 96.000000
E 73 78 103.000000
E 73 160 96.000000
E 73 187 92.000000
E 73 204 90.000000
E 73 205 97.000000
E 73 263 103.000000
E 73 485 103.000000
E 73 601 106.000000
E 74 128 93.000000
E 74 168 100.000000
E 74 187 98.000000
E 74 392 94.000000
E 74 421 100.000000
E 74 489 96.000000
E 74 525 96.000000
E 76 155 102.000000
E 76 236 101.000000
E 76 392 103.000000
E 77 126 98.000000
E 77 379 103.000000
E 77 556 96.000000
E 78 247 102.000000
E 78 348 101.000000
E 79 144 98.000000
E 79 154 93.000000
E 79 621 97.000000
E 80 205 107.000000
E 80 262 88.000000
E 81 267 97.000000
E 81 405 98.000000
E 82 160 99.000000
E 82 168 100.000000
E 82 555 108.000000
E 83 106 92.000000
E 83 410 105.000000
E 83 441 96.000000
E 83 448 105.000000
E 84 149 100.000000
E 84 511 108.000000
E 85 109 102.000000
E 85 138 97.000000
E 85 198 108.000000
E 86 240 104.000000
E 86 458 96.000000
E 87 162 97.000000
E 87 336 99.000000
E 87 342 93.000000
E 87 540 102.000000
E 88 103 97.000000
E 88 128 92.000000
E 88 326 96.000000
E 88 387 98.000000
E 88 394 99.000000
E 88 532 95.000000
E 89 491 105.000000
E 89 567 96.000000
E 90 150 98.000000
E 90 208 94.000000
E 90 251 97.000000
E 90 474 98.000000
E 90 580 106.000000
E 90 603 104.000000
E 91 150 94.000000
E 91 236 98.000000
E 91 360 97.000000
E 91 365 95.000000
E 91 618 96.000000
E 92 281 97.000000
E 92 368 95.000000
E 92 409 93.000000
E 92 547 104.000000
E 93 104 99.000000
E 93 225 103.000000
E 93 332 100.000000
E 93 393 98.000000
E 94 139 104.000000
E 94 156 101.000000
E 94 320 102.000000
E 94 386 94.000000
E 95 151 100.000000
E 95 389 103.000000
E 95 478 104.000000
E 96 98 97.000000
E 96 330 107.000000
E 96 424 104.000000
E 96 516 101.000000
E 97 476 99.000000
E 97 497 97.000000
E 98 130 101.000000
E 98 221 100.000000
E 98 381 100.000000
E 99 158 107.000000
E 99 229 95.000000
E 99 251 104.000000
E 99 485 101.000000
E 99 602 100.000000
E 100 141 106.000000
E 100 443 96.000000
E 101 456 97.000000
E 102 446 108.000000
E 102 458 97.000000
E 103 117 98.000000
E 103 533 90.000000
E 104 427 101.000000
E 104 440 96.000000
E 104 533 99.000000
E 105 361 98.000000
E 105 401 98.000000
E 106 266 99.000000
E 106 292 105.000000
E 106 366 99.000000
E 106 371 99.000000
E 106 401 87.000000
E 106 549 105.000000
E 107 532 98.000000
E 107 575 93.000000
E 107 615 101.000000
E 108 362 101.000000
E 108 560 93.000000
E 108 575 106.000000
E 108 639 100.000000
E 109 304 100.000000
E 109 383 104.000000
E 109 426 109.000000
E 109 427 104.000000
E 109 541 95.000000
E 109 618 97.000000
E 109 637 97.000000
E 110 274 106.000000
E 111 227 101.000000
E 111 358 106.000000
E 111 615 101.000000
E 112 187 109.000000
E 112 204 102.000000
E 112 311 104.000000
E 112 510 100.000000
E 112 576 104.000000
E 113 331 99.000000
E 113 341 99.000000
E 114 129 101.000000
E 114 307 104.000000
E 115 314 102.000000
E 115 547 100.000000
E 117 247 100.000000
E 117 255 98.000000
E 117 566 105.000000
E 117 601 97.000000
E 117 604 99.000000
E 118 611 107.000000
E 119 378 100.000000
E 119 442 108.000000
E 119 519 97.000000
E 120 160 106.000000
E 120 175 96.000000
E 120 197 100.000000
E 120 327 97.000000
E 120 598 94.000000
E 121 131 99.000000
E 121 178 95.000000
E 121 368 98.000000
E 121 404 106.000000
E 121 509 98.000000
E 122 172 109.000000
E 122 566 104.000000
E 122 579 97.000000
E 123 194 98.000000
E 123 280 89.000000
E 123 306 104.000000
E 123 376 90.000000
E 123 388 104.000000
E 123 522 102.000000
E 124 272 95.000000
E 124 375 109.000000
E 124 393 89.000000
E 124 636 91.000000
E 125 247 98.000000
E 125 404 94.000000
E 126 431 104.000000
E 126 458 99.000000
E 127 259 102.000000
E 127 314 103.000000
E 127 439 96.000000
E 128 415 107.000000
E 128 420 98.000000
E 128 488 98.000000
E 129 226 105.000000
E 129 282 100.000000
E 129 386 107.000000
E 129 598 99.000000
E 130 504 98.000000
E 130 505 99.000000
E 131 133 99.000000
E 131 425 101.000000
E 131 438 100.000000
E 131 588 99.000000
E 132 183 98.000000
E 132 483 95.000000
E 132 528 102.000000
E 134 177 104.000000
E 134 388 98.000000
E 134 593 95.000000
E 135 483 104.000000
E 136 269 103.000000
E 136 586 102.000000
E 137 474 99.000000
E 138 336 102.000000
E 138 393 102.000000
E 139 210 103.000000
E 140 246 93.000000
E 141 393 97.000000
E 142 163 99.000000
E 142 603 104.000000
E 143 288 108.000000
E 143 348 101.000000
E 143 376 97.000000
E 143 390 103.000000
E 144 190 94.000000
E 144 380 95.000000
E 144 457 98.000000
E 144 511 93.000000
E 145 182 83.000000
E 145 258 101.000000
E 145 399 94.000000
E 145 403 100.000000
E 145 628 95.000000
E 146 229 93.000000
E 146 338 95.000000
E 146 463 94.000000
E 147 197 93.000000
E 147 350 90.000000
E 147 598 105.000000
E 147 640 97.000000
E 148 306 96.000000
E 148 570 85.000000
E 149 200 103.000000
E 149 456 90.000000
E 149 503 95.000000
E 150 322 99.000000
E 150 468 105.000000
E 151 218 102.000000
E 151 344 95.000000
E 151 528 102.000000
E 152 163 94.000000
E 152 242 93.000000
E 152 254 104.000000
E 152 447 104.000000
E 152 598 103.000000
E 153 494 107.000000
E 153 590 99.000000
E 154 461 107.000000
E 154 587 100.000000
E 155 211 92.000000
E 155 340 105.000000
E 155 508 102.000000
E 155 609 88.000000
E 156 182 104.000000
E 156 390 106.000000
E 156 576 107.000000
E 157 325 106.000000
E 157 448 100.000000
E 158 577 98.000000
E 159 447 92.000000
E 159 611 101.000000
E 160 466 105.000000
E 160 560 98.000000
E 161 180 103.000000
E 161 287 97.000000
E 161 333 97.000000
E 161 457 95.000000
E 161 562 103.000000
E 161 589 100.000000
E 161 613 97.000000
E 162 416 97.000000
E 162 556 92.000000
E 163 301 93.000000
E 164 225 108.000000
E 164 251 96.000000
E 164 264 99.000000
E 164 409 100.000000
E 164 623 112.000000
E 165 234 100.000000
E 165 264 103.000000
E 165 268 103.000000
E 165 305 102.000000
E 165 380 103.000000
E 165 407 93.000000
E 165 506 95.000000
E 165 519 105.000000
E 165 526 94.000000
E 165 540 103.000000
E 166 258 100.000000
E 166 617 100.000000
E 167 353 104.000000
E 167 379 96.000000
E 167 401 97.000000
E 167 491 97.000000
E 167 503 101.000000
E 168 345 103.000000
E 168 426 102.000000
E 169 223 109.000000
E 169 224 95.000000
E 169 381 98.000000
E 169 435 105.000000
E 169 452 104.000000
E 169 620 103.000000
E 170 305 96.000000
E 170 427 100.000000
E 170 544 102.000000
E 171 237 103.000000
E 171 625 110.000000
E 172 526 101.000000
E 173 298 98.000000
E 173 373 100.000000
E 173 499 95.000000
E 173 549 102.000000
E 174 254 93.000000
E 174 325 101.000000
E 174 330 102.000000
E 176 400 100.000000
E 176 451 98.000000
E 176 585 103.000000
E 177 317 100.000000
E 178 233 93.000000
E 178 435 101.000000
E 178 616 105.000000
E 179 376 107.000000
E 179 458 91.000000
E 179 470 111.000000
E 180 232 105.000000
E 180 274 99.000000
E 181 333 103.000000
E 181 392 111.000000
E 182 518 98.000000
E 183 233 105.000000
E 183 357 107.000000
E 183 609 104.000000
E 184 291 95.000000
E 184 472 116.000000
E 185 404 95.000000
E 185 430 97.000000
E 186 384 98.000000
E 186 392 107.000000
E 186 401 98.000000
E 186 421 94.000000
E 187 464 94.000000
E 187 579 101.000000
E 187 587 97.000000
E 188 262 101.000000
E 188 506 100.000000
E 188 548 98.000000
E 189 233 100.000000
E 189 514 95.000000
E 189 543 96.000000
E 189 620 102.000000
E 190 308 105.000000
E 191 366 91.000000
E 191 616 98.000000
E 192 230 98.000000
E 192 467 104.000000
E 192 471 93.000000
E 192 536 89.000000
E 192 564 102.000000
E 193 260 100.000000
E 194 212 95.000000
E 194 251 108.000000
E 194 322 105.000000
E 194 375 101.000000
E 194 453 99.000000
E 194 488 103.000000
E 194 509 98.000000
E 195 202 100.000000
E 195 219 105.000000
E 196 316 108.000000
E 196 513 93.000000
E 197 552 100.000000
E 197 623 95.000000
E 197 637 99.000000
E 198 247 99.000000
E 198 289 99.000000
E 198 360 103.000000
E 199 253 98.000000
E 199 527 98.000000
E 200 377 104.000000
E 200 500 92.000000
E 200 580 100.000000
E 201 438 89.000000
E 201 521 102.000000
E 202 216 101.000000
E 202 237 95.000000
E 202 484 89.000000
E 202 572 95.000000
E 204 233 100.000000
E 204 314 99.000000
E 204 400 86.000000
E 204 474 101.000000
E 205 279 98.000000
E 205 303 98.000000
E 205 373 105.000000
E 205 418 93.000000
E 205 625 97.000000
E 206 312 96.000000
E 206 346 101.000000
E 206 411 99.000000
E 206 443 96.000000
E 206 446 110.000000
E 206 519 98.000000
E 207 276 105.000000
E 207 305 108.000000
E 207 369 95.000000
E 207 495 90.000000
E 207 533 101.000000
E 207 540 102.000000
E 207 609 104.000000
E 208 353 105.000000
E 209 211 96.000000
E 209 302 102.000000
E 209 557 99.000000
E 210 413 106.000000
E 211 265 104.000000
E 212 215 105.000000
E 212 349 94.000000
E 212 417 98.000000
E 212 524 91.000000
E 212 606 98.000000
E 213 393 102.000000
E 213 560 100.000000
E 214 418 95.000000
E 214 455 96.000000
E 214 547 92.000000
E 215 258 105.000000
E 215 301 102.000000
E 215 487 97.000000
E 215 632 100.000000
E 216 327 103.000000
E 217 419 89.000000
E 217 492 99.000000
E 217 619 104.000000
E 217 622 103.000000
E 218 344 101.000000
E 218 604 103.000000
E 219 520 108.000000
E 219 530 99.000000
E 220 472 97.000000
E 220 572 97.000000
E 220 618 97.000000
E 221 374 98.000000
E 221 395 113.000000
E 221 451 101.000000
E 222 230 93.000000
E 222 259 98.000000
E 222 401 101.000000
E 223 457 101.000000
E 223 480 98.000000
E 223 541 106.000000
E 223 603 101.000000
E 224 309 108.000000
E 224 359 101.000000
E 224 536 102.000000
E 224 588 102.000000
E 224 631 103.000000
E 225 334 100.000000
E 225 433 106.000000
E 225 511 86.000000
E 225 548 97.000000
E 226 232 100.000000
E 226 414 103.000000
E 226 443 89.000000
E 226 497 111.000000
E 226 604 111.000000
E 227 456 93.000000
E 227 630 100.000000
E 228 416 101.000000
E 228 576 104.000000
E 228 585 93.000000
E 229 478 101.000000
E 230 324 104.000000
E 231 285 93.000000
E 231 540 99.000000
E 231 612 106.000000
E 232 293 100.000000
E 232 391 101.000000
E 232 418 104.000000
E 232 470 97.000000
E 233 367 102.000000
E 233 424 102.000000
E 233 515 104.000000
E 233 635 92.000000
E 234 448 97.000000
E 234 516 100.000000
E 234 521 103.000000
E 235 403 96.000000
E 235 460 98.000000
E 235 462 103.000000
E 236 454 100.000000
E 236 482 89.000000
E 236 503 102.000000
E 237 408 104.000000
E 237 640 84.000000
E 238 315 94.000000
E 238 449 91.000000
E 238 569 96.000000
E 239 246 106.000000
E 239 555 90.000000
E 239 578 97.000000
E 239 583 100.000000
E 239 612 100.000000
E 240 321 105.000000
E 240 466 99.000000
E 240 620 104.000000
E 240 623 101.000000
E 241 357 99.000000
E 241 363 100.000000
E 241 367 95.000000
E 241 515 100.000000
E 241 610 106.000000
E 242 296 96.000000
E 243 283 98.000000
E 243 368 105.000000
E 244 325 94.000000
E 245 420 111.000000
E 245 452 103.000000
E 245 470 101.000000
E 245 519 102.000000
E 245 618 105.000000
E 246 540 97.000000
E 246 626 103.000000
E 247 416 97.000000
E 247 420 105.000000
E 247 425 102.000000
E 248 403 101.000000
E 249 290 98.000000
E 249 493 97.000000
E 249 543 104.000000
E 250 303 108.000000
E 250 462 107.000000
E 250 509 102.000000
E 251 304 102.000000
E 251 306 99.000000
E 252 351 98.000000
E 252 522 99.000000
E 252 542 99.000000
E 253 373 96.000000
E 254 297 101.000000
E 254 322 103.000000
E 254 373 99.000000
E 254 554 94.000000
E 255 328 97.000000
E 255 520 108.000000
E 255 556 110.000000
E 256 411 99.000000
E 256 579 101.000000
E 257 596 99.000000
E 257 625 96.000000
E 258 275 99.000000
E 258 352 96.000000
E 258 559 103.000000
E 261 585 101.000000
E 262 406 97.000000
E 262 465 98.000000
E 262 618 101.000000
E 263 308 99.000000
E 263 363 95.000000
E 264 306 100.000000
E 264 413 99.000000
E 264 420 94.000000
E 264 450 91.000000
E 264 569 99.000000
E 265 272 105.000000
E 265 377 100.000000
E 265 410 99.000000
E 265 557 101.000000
E 266 315 103.000000
E 267 521 102.000000
E 268 491 106.000000
E 268 513 103.000000
E 268 565 101.000000
E 269 319 99.000000
E 270 350 96.000000
E 271 355 101.000000
E 271 561 94.000000
E 271 631 104.000000
E 272 308 94.000000
E 273 277 88.000000
E 273 548 105.000000
E 275 530 101.000000
E 276 387 100.000000
E 276 422 92.000000
E 276 436 101.000000
E 276 542 96.000000
E 276 599 103.000000
E 276 602 99.000000
E 277 612 103.000000
E 278 381 93.000000
E 278 430 94.000000
E 279 479 89.000000
E 279 532 97.000000
E 279 536 100.000000
E 279 633 104.000000
E 281 520 104.000000
E 282 442 96.000000
E 282 477 97.000000
E 282 565 100.000000
E 285 420 110.000000
E 286 297 96.000000
E 286 363 97.000000
E 286 378 95.000000
E 286 512 95.000000
E 286 544 93.000000
E 286 566 100.000000
E 288 298 109.000000
E 288 312 101.000000
E 288 368 91.000000
E 288 444 94.000000
E 288 629 99.000000
E 288 639 98.000000
E 289 301 100.000000
E 290 464 92.000000
E 290 534 94.000000
E 290 626 92.000000
E 291 460 96.000000
E 291 610 105.000000
E 292 443 91.000000
E 292 510 106.000000
E 293 337 98.000000
E 293 605 99.000000
E 294 324 99.000000
E 294 368 101.000000
E 294 473 94.000000
E 295 500 97.000000
E 295 512 98.000000
E 295 550 101.000000
E 295 581 107.000000
E 296 354 99.000000
E 296 381 94.000000
E 296 487 94.000000
E 296 586 96.000000
E 296 619 97.000000
E 296 621 105.000000
E 296 636 88.000000
E 297 358 97.000000
E 297 504 103.000000
E 297 510 95.000000
E 298 333 89.000000
E 298 425 98.000000
E 298 479 103.000000
E 298 514 96.000000
E 298 516 91.000000
E 299 457 101.000000
E 299 553 99.000000
E 300 456 103.000000
E 300 567 101.000000
E 301 602 95.000000
E 302 342 100.000000
E 302 371 98.000000
E 303 317 100.000000
E 303 579 96.000000
E 304 436 112.000000
E 305 582 101.000000
E 306 334 98.000000
E 306 577 97.000000
E 306 590 92.000000
E 307 547 107.000000
E 308 395 93.000000
E 309 599 99.000000
E 309 612 98.000000
E 310 343 97.000000
E 310 500 99.000000
E 310 502 99.000000
E 310 506 99.000000
E 311 454 102.000000
E 311 493 93.000000
E 311 583 94.000000
E 312 313 107.000000
E 313 548 110.000000
E 314 351 103.000000
E 314 476 99.000000
E 316 333 108.000000
E 316 424 101.000000
E 316 433 92.000000
E 316 458 105.000000
E 316 460 103.000000
E 316 604 101.000000
E 317 640 93.000000
E 318 359 104.000000
E 318 456 105.000000
E 318 483 98.000000
E 318 533 96.000000
E 318 573 99.000000
E 319 439 98.000000
E 319 593 101.000000
E 321 492 98.000000
E 322 594 100.000000
E 323 375 90.000000
E 324 442 96.000000
E 325 399 92.000000
E 325 425 102.000000
E 326 458 96.000000
E 327 420 101.000000
E 327 635 91.000000
E 329 361 101.000000
E 330 510 98.000000
E 331 377 95.000000
E 331 609 96.000000
E 332 500 104.000000
E 332 513 102.000000
E 332 559 105.000000
E 332 633 96.000000
E 333 408 99.000000
E 334 538 102.000000
E 335 591 98.000000
E 336 350 99.000000
E 336 481 97.000000
E 336 576 96.000000
E 336 592 107.000000
E 337 366 95.000000
E 337 427 103.000000
E 338 382 101.000000
E 338 399 96.000000
E 339 428 97.000000
E 339 499 100.000000
E 339 618 95.000000
E 341 353 101.000000
E 341 434 99.000000
E 342 388 95.000000
E 342 489 98.000000
E 343 390 97.000000
E 343 397 98.000000
E 343 399 103.000000
E 343 574 102.000000
E 345 529 107.000000
E 345 551 100.000000
E 346 554 100.000000
E 346 576 102.000000
E 346 601 100.000000
E 347 381 94.000000
E 347 461 91.000000
E 347 503 102.000000
E 348 615 94.000000
E 349 419 93.000000
E 349 535 97.000000
E 351 393 90.000000
E 351 589 107.000000
E 353 402 96.000000
E 353 563 100.000000
E 354 432 98.000000
E 354 440 99.000000
E 354 475 97.000000
E 355 492 93.000000
E 355 599 91.000000
E 356 430 106.000000
E 357 428 104.000000
E 358 511 104.000000
E 361 538 98.000000
E 361 609 101.000000
E 362 389 97.000000
E 362 437 97.000000
E 362 505 95.000000
E 363 625 105.000000
E 364 493 100.000000
E 365 391 101.000000
E 365 459 102.000000
E 366 367 96.000000
E 366 546 94.000000
E 366 570 103.000000
E 367 475 88.000000
E 367 508 95.000000
E 370 382 94.000000
E 370 579 95.000000
E 371 553 94.000000
E 371 558 104.000000
E 371 571 102.000000
E 372 397 107.000000
E 373 451 101.000000
E 373 510 98.000000
E 373 608 102.000000
E 374 394 98.000000
E 375 421 110.000000
E 376 383 91.000000
E 376 444 99.000000
E 376 546 105.000000
E 376 572 94.000000
E 378 588 96.000000
E 379 638 93.000000
E 380 416 94.000000
E 380 460 92.000000
E 380 499 99.000000
E 380 610 103.000000
E 381 391 103.000000
E 381 399 110.000000
E 382 403 103.000000
E 382 624 101.000000
E 383 608 102.000000
E 384 498 103.000000
E 384 626 103.000000
E 385 579 102.000000
E 385 621 102.000000
E 386 479 107.000000
E 386 578 93.000000
E 388 516 95.000000
E 390 459 98.000000
E 390 523 98.000000
E 391 509 98.000000
E 393 491 106.000000
E 393 618 104.000000
E 394 455 89.000000
E 394 598 101.000000
E 395 412 103.000000
E 396 451 104.000000
E 398 560 100.000000
E 398 605 108.000000
E 399 475 102.000000
E 400 497 104.000000
E 401 546 108.000000
E 401 631 105.000000
E 401 636 106.000000
E 403 586 99.000000
E 403 615 105.000000
E 404 428 102.000000
E 404 453 94.000000
E 404 568 104.000000
E 405 433 95.000000
E 406 574 97.000000
E 406 615 96.000000
E 407 467 102.000000
E 407 496 99.000000
E 407 574 95.000000
E 407 634 98.000000
E 408 515 91.000000
E 410 529 102.000000
E 411 475 105.000000
E 411 634 95.000000
E 412 572 91.000000
E 412 581 100.000000
E 412 640 105.000000
E 413 493 99.000000
E 414 600 104.000000
E 414 638 102.000000
E 415 457 105.000000
E 415 536 105.000000
E 415 542 94.000000
E 416 609 102.000000
E 417 420 100.000000
E 417 435 92.000000
E 417 479 104.000000
E 417 506 99.000000
E 417 564 99.000000
E 418 549 100.000000
E 421 637 102.000000
E 422 496 96.000000
E 424 532 97.000000
E 424 535 98.000000
E 424 552 100.000000
E 424 622 101.000000
E 424 638 100.000000
E 425 458 105.000000
E 425 556 90.000000
E 427 573 93.000000
E 428 435 89.000000
E 428 531 88.000000
E 428 597 98.000000
E 428 608 110.000000
E 429 535 104.000000
E 430 636 98.000000
E 431 549 98.000000
E 431 573 101.000000
E 432 535 100.000000
E 432 607 105.000000
E 432 637 110.000000
E 435 637 95.000000
E 436 455 90.000000
E 437 630 99.000000
E 438 499 101.000000
E 438 598 103.000000
E 438 630 94.000000
E 439 489 100.000000
E 439 588 96.000000
E 440 479 108.000000
E 440 504 102.000000
E 441 593 94.000000
E 442 499 104.000000
E 442 640 97.000000
E 443 449 113.000000
E 443 584 95.000000
E 443 591 106.000000
E 444 477 90.000000
E 444 640 95.000000
E 446 541 108.000000
E 446 577 95.000000
E 447 531 88.000000
E 447 603 99.000000
E 448 602 105.000000
E 448 611 93.000000
E 449 458 100.000000
E 449 557 95.000000
E 450 457 106.000000
E 450 535 100.000000
E 451 531 102.000000
E 451 607 98.000000
E 451 629 98.000000
E 452 558 91.000000
E 453 595 91.000000
E 456 494 98.000000
E 456 500 106.000000
E 456 554 106.000000
E 456 560 94.000000
E 458 605 98.000000
E 458 631 99.000000
E 460 547 93.000000
E 461 526 96.000000
E 461 579 107.000000
E 462 488 100.000000
E 463 486 98.000000
E 464 539 102.000000
E 466 589 102.000000
E 468 507 101.000000
E 469 473 100.000000
E 469 502 100.000000
E 469 577 96.000000
E 473 516 97.000000
E 475 595 97.000000
E 476 594 105.000000
E 477 623 95.000000
E 482 555 96.000000
E 482 576 89.000000
E 482 594 100.000000
E 482 639 97.000000
E 483 547 103.000000
E 484 575 101.000000
E 486 541 101.000000
E 490 511 105.000000
E 490 626 101.000000
E 493 500 100.000000
E 493 519 100.000000
E 496 515 101.000000
E 496 550 99.000000
E 498 523 99.000000
E 498 595 100.000000
E 498 636 94.000000
E 501 601 104.000000
E 503 614 95.000000
E 505 639 95.000000
E 506 608 99.000000
E 507 550 104.000000
E 508 560 91.000000
E 512 585 98.000000
E 513 567 93.000000
E 514 517 95.000000
E 514 582 96.000000
E 514 597 97.000000
E 516 584 97.000000
E 518 522 99.000000
E 519 603 99.000000
E 520 565 104.000000
E 522 628 100.000000
E 524 550 109.000000
E 524 556 100.000000
E 526 599 103.000000
E 527 551 94.000000
E 529 603 98.000000
E 531 542 101.000000
E 533 543 97.000000
E 536 586 106.000000
E 537 540 87.000000
E 537 542 104.000000
E 538 591 95.000000
E 538 593 103.000000
E 539 553 86.000000
E 540 545 106.000000
E 541 619 101.000000
E 542 632 108.000000
E 543 571 101.000000
E 543 606 96.000000
E 545 612 101.000000
E 546 578 100.000000
E 549 570 96.000000
E 552 570 93.000000
E 556 558 95.000000
E 558 588 99.000000
E 558 601 110.000000
E 561 567 100.000000
E 562 599 96.000000
E 563 596 100.000000
E 566 574 95.000000
E 566 631 107.000000
E 569 600 96.000000
E 569 602 95.000000
E 577 583 109.000000
E 577 592 108.000000
E 579 618 93.000000
E 580 615 102.000000
E 588 602 104.000000
E 597 634 102.000000
E 603 635 101.000000
E 605 621 105.000000
E 608 633 100.000000
E 611 622 92.000000
E 611 637 96.000000
E 617 618 96.000000
E 622 640 96.000000
END

SECTION Terminals
Terminals 50
TP 1 584.000000
TP 2 380.000000
TP 3 60.000000
TP 4 604.000000
TP 5 240.000000
TP 6 236.000000
TP 7 1116.000000
TP 8 224.000000
TP 9 148.000000
TP 10 992.000000
TP 11 300.000000
TP 12 28.000000
TP 13 224.000000
TP 14 536.000000
TP 15 312.000000
TP 16 824.000000
TP 17 264.000000
TP 18 596.000000
TP 19 1152.000000
TP 20 312.000000
TP 21 424.000000
TP 22 172.000000
TP 23 712.000000
TP 24 1232.000000
TP 25 680.000000
TP 26 408.000000
TP 27 624.000000
TP 28 240.000000
TP 29 80.000000
TP 30 796.000000
TP 31 940.000000
TP 32 408.000000
TP 33 868.000000
TP 34 712.000000
TP 35 1188.000000
TP 36 712.000000
TP 37 280.000000
TP 38 1208.000000
TP 39 844.000000
TP 40 172.000000
TP 41 344.000000
TP 42 0.000000
TP 43 488.000000
TP 44 60.000000
TP 45 1188.000000
TP 46 752.000000
TP 47 912.000000
TP 48 1096.000000
TP 49 736.000000
TP 50 60.000000
END

EOF
